p edge 270 269 118
e 1 231
e 2 193
e 3 244
e 4 118
e 4 226
e 4 270
e 5 196
e 6 77
e 6 268
e 6 198
e 7 33
e 7 173
e 8 191
e 8 128
e 9 105
e 10 62
e 10 209
e 10 123
e 10 193
e 11 33
e 12 38
e 12 152
e 13 177
e 14 59
e 15 160
e 16 266
e 16 142
e 16 215
e 17 173
e 17 253
e 18 59
e 18 141
e 18 225
e 19 108
e 20 213
e 20 238
e 20 182
e 21 157
e 21 91
e 22 75
e 22 26
e 22 106
e 23 163
e 23 244
e 23 256
e 24 55
e 24 220
e 25 202
e 26 196
e 27 209
e 28 232
e 29 69
e 29 67
e 30 92
e 30 200
e 31 33
e 32 70
e 32 197
e 32 203
e 34 104
e 35 215
e 36 56
e 37 71
e 37 243
e 39 40
e 39 66
e 39 46
e 41 104
e 41 258
e 42 103
e 43 172
e 44 139
e 45 66
e 46 112
e 47 106
e 47 242
e 47 79
e 48 133
e 49 198
e 50 84
e 51 178
e 52 235
e 52 68
e 53 158
e 53 249
e 53 166
e 54 94
e 56 64
e 56 82
e 56 265
e 57 65
e 58 257
e 60 258
e 61 120
e 63 206
e 63 64
e 65 211
e 67 239
e 68 147
e 68 261
e 68 243
e 69 186
e 69 188
e 70 265
e 72 213
e 73 93
e 73 172
e 74 139
e 75 145
e 75 175
e 76 81
e 76 267
e 76 203
e 78 136
e 79 87
e 80 135
e 80 239
e 81 177
e 82 165
e 83 255
e 84 172
e 85 154
e 85 183
e 85 233
e 86 254
e 87 151
e 88 93
e 89 121
e 89 247
e 89 264
e 89 102
e 89 197
e 90 237
e 91 179
e 92 117
e 92 222
e 92 245
e 94 219
e 95 218
e 96 246
e 96 165
e 97 103
e 98 105
e 98 171
e 99 196
e 100 114
e 100 173
e 101 191
e 102 259
e 102 134
e 103 171
e 104 192
e 106 202
e 106 256
e 107 239
e 107 241
e 108 168
e 109 190
e 110 114
e 111 184
e 112 126
e 112 212
e 113 217
e 113 164
e 115 203
e 115 221
e 116 138
e 116 180
e 119 137
e 119 166
e 119 256
e 120 122
e 121 144
e 122 198
e 122 214
e 123 174
e 124 143
e 124 187
e 124 264
e 125 219
e 127 255
e 127 238
e 128 132
e 128 203
e 129 200
e 129 197
e 130 229
e 130 266
e 131 248
e 131 136
e 133 241
e 134 146
e 134 227
e 136 261
e 137 236
e 139 257
e 139 148
e 140 161
e 140 269
e 142 190
e 142 254
e 142 189
e 142 214
e 148 197
e 149 231
e 150 182
e 151 210
e 151 233
e 151 194
e 152 215
e 152 227
e 153 231
e 153 162
e 155 244
e 156 251
e 156 217
e 157 216
e 157 237
e 159 204
e 159 226
e 160 170
e 160 166
e 162 195
e 164 241
e 164 182
e 164 172
e 166 169
e 167 177
e 168 234
e 168 267
e 171 201
e 172 214
e 174 258
e 175 208
e 176 219
e 176 198
e 178 220
e 179 245
e 180 224
e 180 262
e 180 189
e 181 252
e 181 268
e 182 232
e 183 253
e 184 190
e 185 199
e 185 263
e 185 248
e 191 212
e 193 238
e 194 217
e 195 220
e 196 220
e 201 212
e 204 243
e 205 247
e 207 222
e 211 251
e 218 254
e 219 250
e 221 228
e 222 225
e 223 227
e 228 270
e 230 244
e 240 269
e 240 257
e 242 260
